Route #1: 89 60 83 45 17 84 5 6
Route #2: 61 16 86 38 44 91 98
Route #3: 97 92 37 100 85 93 99
Route #4: 13 95 59 96 94
Route #5: 53 58 2 57 15 43 14 42 87
Route #6: 73 74 22 41 75 72 21 40
Route #7: 55 25 39 67 23 56
Route #8: 77 79 29 24 54 4 26
Route #9: 12 80 68 76 28
Route #10: 3 78 34 35 71 65 66 20
Route #11: 27 69 1 51 9 81 33 50
Route #12: 31 10 63 90 32 30 70
Route #13: 88 62 11 64 49 36 46 8 18
Route #14: 52 7 19 47 48 82
Cost 1086
Time 0.163979
